% Data file generated from RandomInstances/16_0.65_3.col DIMACS file
size = 16;

chi = 8;

adjacency = [|0,1,0,1,0,1,1,1,1,1,1,1,1,1,1,1,
|1,0,0,1,0,1,1,1,0,1,1,1,0,1,1,0,
|0,0,0,0,1,1,1,0,1,1,1,0,0,1,1,1,
|1,1,0,0,1,1,1,1,1,1,1,1,0,1,1,1,
|0,0,1,1,0,1,0,1,1,1,1,1,1,1,1,1,
|1,1,1,1,1,0,1,0,1,0,1,1,0,0,1,1,
|1,1,1,1,0,1,0,1,0,1,1,1,1,1,1,0,
|1,1,0,1,1,0,1,0,0,1,1,0,1,1,1,1,
|1,0,1,1,1,1,0,0,0,0,0,0,1,0,1,1,
|1,1,1,1,1,0,1,1,0,0,1,1,0,0,1,0,
|1,1,1,1,1,1,1,1,0,1,0,1,1,1,1,1,
|1,1,0,1,1,1,1,0,0,1,1,0,1,1,1,0,
|1,0,0,0,1,0,1,1,1,0,1,1,0,1,1,0,
|1,1,1,1,1,0,1,1,0,0,1,1,1,0,1,1,
|1,1,1,1,1,1,1,1,1,1,1,1,1,1,0,1,
|1,0,1,1,1,1,0,1,1,0,1,0,0,1,1,0,
|];